jpf-symbc-bounded/src/examples/symbolicheap/bounded/bounddb/BinomialHeap-01.cnf
p cnf 89 105                
-5 -4 -22 0
22 -24 0
4 5 -23 0
23 -24 0
-7 -6 -25 0
25 -27 0
6 7 -26 0
26 -27 0
-11 -10 -28 0
28 -30 0
10 11 -29 0
29 -30 0
-13 -12 -31 0
31 -33 0
12 13 -32 0
32 -33 0
-16 -15 -34 0
34 -36 0
15 16 -35 0
35 -36 0
-19 -18 -37 0
37 -43 0
-18 38 0
-19 38 0
18 19 -38 0
-38 -20 -39 0
39 -43 0
-20 40 0
-38 40 0
20 38 -40 0
-40 -21 -41 0
41 -43 0
21 40 -42 0
42 -43 0
9 -45 0
1 -44 0
14 -44 0
44 -45 0
-15 17 -52 0
52 -54 0
-16 17 -53 0
53 -54 0
-4 17 -55 0
55 -57 0
-5 17 -56 0
56 -57 0
8 -58 0
17 -58 0
-8 -17 58 0
5 -47 0
17 -47 0
-5 -17 47 0
-58 47 -61 0
61 -63 0
-47 58 -62 0
62 -63 0
14 9 68 0
-68 -69 0
-3 9 -64 0
64 -66 0
1 2 -65 0
65 -66 0
66 -69 0
69 -71 0
-1 2 -70 0
70 -71 0
-47 71 -72 0
72 -82 0
15 -73 0
17 -73 0
-15 -17 73 0
-73 -47 -75 0
75 -77 0
16 -74 0
17 -74 0
-16 -17 74 0
-74 47 -76 0
76 -77 0
77 -81 0
47 73 -78 0
78 -80 0
-47 74 -79 0
79 -80 0
80 -81 0
81 -82 0
82 -87 0
9 -85 0
14 -85 0
-47 85 -86 0
86 -87 0
-7 0
2 0
3 0
17 0
24 0
27 0
30 0
33 0
36 0
43 0
45 0
54 0
57 0
63 0
87 0
