jpf-symbc-bounded/src/examples/symbolicheap/bounded/bounddb/BinomialHeap-01.txt
#BinomialHeap_0
@Nodes
@sibling
@child
@parent
BinomialHeap/BinomialHeap_0/Nodes/null
BinomialHeap/BinomialHeap_0/Nodes/BinomialHeapNode_0
BinomialHeapNode/BinomialHeapNode_0/sibling/null
BinomialHeapNode/BinomialHeapNode_0/child/null
BinomialHeapNode/BinomialHeapNode_0/parent/null
